NAME : problems/40-tsp/instance-4.tsp
COMMENT : No Comment
TYPE : TSP
DIMENSION: 40
EDGE_WEIGHT_TYPE : EUC_2D
NODE_COORD_SECTION
1 6959 2782 
2 3789 9540 
3 4096 5553 
4 9046 3539 
5 4869 2676 
6 5200 4795 
7 7963 8613 
8 6320 9838 
9 193 9622 
10 4610 5724 
11 2120 3893 
12 1893 2771 
13 6709 8499 
14 5902 1564 
15 2003 659 
16 5176 3783 
17 294 7462 
18 5925 9579 
19 2014 7712 
20 4643 9643 
21 643 6108 
22 811 7252 
23 2109 9058 
24 8223 249 
25 3271 3772 
26 7337 1989 
27 2946 2735 
28 3196 8058 
29 5480 2213 
30 4527 2604 
31 6691 4953 
32 988 6500 
33 4366 3236 
34 8212 5378 
35 5576 8299 
36 3464 9577 
37 4596 5021 
38 6046 8511 
39 7374 1365 
40 9565 6810 
EOF
